p tw 40 226
e 0 3
e 0 4
e 0 12
e 0 20
e 0 21
e 0 22
e 0 29
e 0 30
e 0 32
e 0 36
e 1 8
e 1 25
e 1 28
e 1 30
e 2 3
e 2 7
e 2 11
e 2 13
e 2 15
e 2 16
e 2 18
e 2 21
e 2 22
e 2 26
e 2 28
e 2 30
e 2 32
e 2 34
e 2 35
e 2 37
e 2 38
e 3 5
e 3 7
e 3 8
e 3 12
e 3 14
e 3 23
e 3 26
e 3 29
e 3 33
e 3 35
e 3 38
e 4 5
e 4 6
e 4 7
e 4 8
e 4 9
e 4 15
e 4 17
e 4 22
e 4 25
e 4 26
e 4 28
e 4 30
e 4 31
e 4 32
e 4 33
e 4 34
e 4 39
e 5 12
e 5 15
e 5 16
e 5 22
e 5 25
e 5 27
e 5 31
e 5 35
e 5 37
e 5 38
e 6 8
e 6 10
e 6 16
e 6 17
e 6 18
e 6 23
e 6 31
e 6 38
e 6 39
e 7 9
e 7 15
e 7 18
e 7 20
e 7 21
e 7 25
e 7 26
e 7 27
e 7 32
e 7 36
e 7 39
e 8 16
e 8 18
e 8 21
e 8 35
e 9 11
e 9 17
e 9 23
e 9 26
e 9 29
e 9 31
e 9 34
e 9 37
e 9 39
e 10 11
e 10 19
e 10 21
e 10 22
e 10 24
e 10 31
e 10 32
e 10 35
e 10 36
e 11 21
e 11 29
e 11 37
e 11 39
e 12 13
e 12 15
e 12 20
e 12 22
e 12 24
e 12 31
e 12 32
e 12 33
e 12 38
e 13 29
e 13 34
e 13 39
e 14 16
e 14 17
e 14 25
e 14 28
e 14 30
e 14 33
e 14 34
e 14 35
e 14 36
e 14 38
e 15 16
e 15 17
e 15 22
e 15 23
e 15 27
e 16 26
e 16 27
e 16 29
e 16 33
e 16 36
e 16 37
e 16 39
e 17 18
e 17 20
e 17 23
e 17 25
e 17 28
e 17 30
e 17 31
e 17 37
e 17 39
e 18 19
e 18 20
e 18 21
e 18 22
e 18 23
e 18 31
e 18 32
e 18 35
e 18 37
e 19 25
e 19 28
e 19 32
e 19 34
e 19 35
e 20 23
e 20 28
e 20 29
e 20 30
e 20 33
e 20 38
e 20 39
e 21 24
e 21 32
e 21 34
e 21 36
e 22 25
e 22 33
e 22 34
e 22 36
e 23 24
e 23 27
e 23 33
e 23 35
e 23 36
e 23 38
e 24 26
e 24 32
e 24 34
e 24 35
e 24 38
e 25 31
e 25 32
e 25 35
e 26 28
e 26 29
e 26 30
e 26 32
e 27 28
e 27 29
e 27 32
e 27 35
e 27 39
e 28 35
e 28 36
e 28 38
e 28 39
e 29 35
e 29 37
e 30 31
e 31 32
e 32 34
e 32 37
e 33 36
e 34 37
e 34 38
e 35 39
e 36 38
e 36 39
